# Objective value = 206
x0,1_1 0
x0,1_10 0
x0,1_13 0
x0,1_43 0
x0,1_61 0
x0,1_66 0
x0,1_76 0
x0,1_97 0
x0,1_98 0
x0,1_99 0
x0,2_1 0
x0,2_10 0
x0,2_13 0
x0,2_43 0
x0,2_61 0
x0,2_66 0
x0,2_76 0
x0,2_97 0
x0,2_98 0
x0,2_99 0
x0,3_1 0
x0,3_10 0
x0,3_13 0
x0,3_43 0
x0,3_61 0
x0,3_66 0
x0,3_76 0
x0,3_97 0
x0,3_98 0
x0,3_99 0
x0,4_1 0
x0,4_10 1
x0,4_13 0
x0,4_43 0
x0,4_61 0
x0,4_66 0
x0,4_76 0
x0,4_97 0
x0,4_98 0
x0,4_99 0
x0,5_1 0
x0,5_10 0
x0,5_13 0
x0,5_43 0
x0,5_61 0
x0,5_66 0
x0,5_76 0
x0,5_97 0
x0,5_98 0
x0,5_99 0
x0,6_1 0
x0,6_10 0
x0,6_13 0
x0,6_43 0
x0,6_61 0
x0,6_66 1
x0,6_76 0
x0,6_97 0
x0,6_98 0
x0,6_99 0
x0,7_1 0
x0,7_10 0
x0,7_13 0
x0,7_43 0
x0,7_61 0
x0,7_66 0
x0,7_76 0
x0,7_97 0
x0,7_98 0
x0,7_99 1
x1,2_1 1
x1,2_10 0
x1,2_13 0
x1,2_43 0
x1,2_61 0
x1,2_66 0
x1,2_76 0
x1,2_97 0
x1,2_98 0
x1,2_99 0
x1,3_1 0
x1,3_10 0
x1,3_13 0
x1,3_43 0
x1,3_61 0
x1,3_66 0
x1,3_76 0
x1,3_97 0
x1,3_98 0
x1,3_99 0
x1,4_1 0
x1,4_10 0
x1,4_13 0
x1,4_43 0
x1,4_61 0
x1,4_66 0
x1,4_76 0
x1,4_97 0
x1,4_98 0
x1,4_99 0
x1,5_1 0
x1,5_10 0
x1,5_13 0
x1,5_43 0
x1,5_61 0
x1,5_66 0
x1,5_76 0
x1,5_97 0
x1,5_98 0
x1,5_99 0
x1,6_1 0
x1,6_10 0
x1,6_13 0
x1,6_43 0
x1,6_61 0
x1,6_66 0
x1,6_76 0
x1,6_97 0
x1,6_98 0
x1,6_99 0
x1,7_1 0
x1,7_10 0
x1,7_13 0
x1,7_43 0
x1,7_61 0
x1,7_66 0
x1,7_76 0
x1,7_97 0
x1,7_98 1
x1,7_99 0
x2,3_1 0
x2,3_10 0
x2,3_13 0
x2,3_43 0
x2,3_61 0
x2,3_66 0
x2,3_76 0
x2,3_97 0
x2,3_98 0
x2,3_99 0
x2,4_1 0
x2,4_10 0
x2,4_13 0
x2,4_43 0
x2,4_61 0
x2,4_66 0
x2,4_76 0
x2,4_97 0
x2,4_98 0
x2,4_99 0
x2,5_1 0
x2,5_10 0
x2,5_13 0
x2,5_43 0
x2,5_61 0
x2,5_66 0
x2,5_76 0
x2,5_97 0
x2,5_98 0
x2,5_99 0
x2,6_1 0
x2,6_10 0
x2,6_13 0
x2,6_43 0
x2,6_61 0
x2,6_66 0
x2,6_76 0
x2,6_97 0
x2,6_98 0
x2,6_99 0
x2,7_1 0
x2,7_10 0
x2,7_13 0
x2,7_43 0
x2,7_61 0
x2,7_66 0
x2,7_76 0
x2,7_97 1
x2,7_98 0
x2,7_99 0
x3,4_1 0
x3,4_10 0
x3,4_13 0
x3,4_43 0
x3,4_61 0
x3,4_66 0
x3,4_76 0
x3,4_97 0
x3,4_98 0
x3,4_99 0
x3,5_1 0
x3,5_10 0
x3,5_13 0
x3,5_43 0
x3,5_61 0
x3,5_66 0
x3,5_76 0
x3,5_97 0
x3,5_98 0
x3,5_99 0
x3,6_1 0
x3,6_10 0
x3,6_13 0
x3,6_43 0
x3,6_61 1
x3,6_66 0
x3,6_76 0
x3,6_97 0
x3,6_98 0
x3,6_99 0
x3,7_1 0
x3,7_10 0
x3,7_13 0
x3,7_43 0
x3,7_61 0
x3,7_66 0
x3,7_76 0
x3,7_97 0
x3,7_98 0
x3,7_99 0
x4,5_1 0
x4,5_10 0
x4,5_13 1
x4,5_43 0
x4,5_61 0
x4,5_66 0
x4,5_76 0
x4,5_97 0
x4,5_98 0
x4,5_99 0
x4,6_1 0
x4,6_10 0
x4,6_13 0
x4,6_43 0
x4,6_61 0
x4,6_66 0
x4,6_76 0
x4,6_97 0
x4,6_98 0
x4,6_99 0
x4,7_1 0
x4,7_10 0
x4,7_13 0
x4,7_43 0
x4,7_61 0
x4,7_66 0
x4,7_76 0
x4,7_97 0
x4,7_98 0
x4,7_99 0
x5,6_1 0
x5,6_10 0
x5,6_13 0
x5,6_43 1
x5,6_61 0
x5,6_66 0
x5,6_76 0
x5,6_97 0
x5,6_98 0
x5,6_99 0
x5,7_1 0
x5,7_10 0
x5,7_13 0
x5,7_43 0
x5,7_61 0
x5,7_66 0
x5,7_76 1
x5,7_97 0
x5,7_98 0
x5,7_99 0
x6,7_1 0
x6,7_10 0
x6,7_13 0
x6,7_43 0
x6,7_61 0
x6,7_66 0
x6,7_76 0
x6,7_97 0
x6,7_98 0
x6,7_99 0
p0 0
p1 1
p2 2
p3 5
p4 10
p5 23
p6 66
p7 99
